Route #1: 15 8 17 42 21
Route #2: 1 32 28 29 19
Route #3: 46 41 45 35 10 23
Route #4: 39 5 44
Route #5: 4 18 26 47 24 16 11 43
Route #6: 27 37 12 9 33 36 20 6
Route #7: 31 30 14 38 22 13 3
Route #8: 34 48 49 25 7 40 2
Cost 1339